solution status: optimal solution found
objective value:                         12470.918437
x48                                                 1 	(obj:129.11)
x82                                                 1 	(obj:60.6335)
x118                                                1 	(obj:326.6)
x129                                                1 	(obj:549.106)
x151                                                1 	(obj:106.953)
x184                                                1 	(obj:582.784)
x202                                                1 	(obj:1054.32)
x216                                                1 	(obj:691.884)
x229                                                1 	(obj:91.3104)
x270                                                1 	(obj:367.513)
x303                                                1 	(obj:55.8187)
x305                                                1 	(obj:0.862637)
x307                                                1 	(obj:629.386)
x335                                                1 	(obj:133.166)
x337                                                1 	(obj:77.8023)
x383                                                1 	(obj:458.685)
x388                                                1 	(obj:665.554)
x449                                                1 	(obj:311.48)
x452                                                1 	(obj:338.744)
x454                                                1 	(obj:61.8511)
x467                                                1 	(obj:100.143)
x472                                                1 	(obj:345.627)
x475                                                1 	(obj:120.408)
x509                                                1 	(obj:33.6956)
x511                                                1 	(obj:243.065)
x537                                                1 	(obj:398.895)
x577                                                1 	(obj:119.177)
x720                                                1 	(obj:719.526)
x828                                                1 	(obj:392.302)
x834                                                1 	(obj:1048.42)
x880                                                1 	(obj:852.465)
x959                                                1 	(obj:10.6482)
x974                                                1 	(obj:194.123)
x991                                                1 	(obj:1198.86)
